c Solved UNSATISFIABLE in:
p cnf 814 2502
 -803 -814 0
 -804 -813 0
 -805 -812 0
 -806 -811 0
 -807 -810 0
 -808 -809 0
 -791 -802 0
 814 -802 0
 -792 -801 0
 814 -791 -801 0
 813 -801 0
 -793 -800 0
 814 -792 -800 0
 813 -791 -800 0
 812 -800 0
 -794 -799 0
 814 -793 -799 0
 813 -792 -799 0
 812 -791 -799 0
 811 -799 0
 -795 -798 0
 814 -794 -798 0
 813 -793 -798 0
 812 -792 -798 0
 811 -791 -798 0
 810 -798 0
 -796 -797 0
 814 -795 -797 0
 813 -794 -797 0
 812 -793 -797 0
 811 -792 -797 0
 810 -791 -797 0
 809 -797 0
 814 -796 0
 813 -795 0
 812 -794 0
 811 -793 0
 810 -792 0
 809 -791 0
 -779 -790 0
 808 -790 0
 -780 -789 0
 808 -779 -789 0
 807 -789 0
 -781 -788 0
 808 -780 -788 0
 807 -779 -788 0
 806 -788 0
 -782 -787 0
 808 -781 -787 0
 807 -780 -787 0
 806 -779 -787 0
 805 -787 0
 -783 -786 0
 808 -782 -786 0
 807 -781 -786 0
 806 -780 -786 0
 805 -779 -786 0
 804 -786 0
 -784 -785 0
 808 -783 -785 0
 807 -782 -785 0
 806 -781 -785 0
 805 -780 -785 0
 804 -779 -785 0
 803 -785 0
 808 -784 0
 807 -783 0
 806 -782 0
 805 -781 0
 804 -780 0
 803 -779 0
 -767 -778 0
 802 -778 0
 -768 -777 0
 802 -767 -777 0
 801 -777 0
 -769 -776 0
 802 -768 -776 0
 801 -767 -776 0
 800 -776 0
 -770 -775 0
 802 -769 -775 0
 801 -768 -775 0
 800 -767 -775 0
 799 -775 0
 -771 -774 0
 802 -770 -774 0
 801 -769 -774 0
 800 -768 -774 0
 799 -767 -774 0
 798 -774 0
 -772 -773 0
 802 -771 -773 0
 801 -770 -773 0
 800 -769 -773 0
 799 -768 -773 0
 798 -767 -773 0
 797 -773 0
 802 -772 0
 801 -771 0
 800 -770 0
 799 -769 0
 798 -768 0
 797 -767 0
 -755 -766 0
 796 -766 0
 -756 -765 0
 796 -755 -765 0
 795 -765 0
 -757 -764 0
 796 -756 -764 0
 795 -755 -764 0
 794 -764 0
 -758 -763 0
 796 -757 -763 0
 795 -756 -763 0
 794 -755 -763 0
 793 -763 0
 -759 -762 0
 796 -758 -762 0
 795 -757 -762 0
 794 -756 -762 0
 793 -755 -762 0
 792 -762 0
 -760 -761 0
 796 -759 -761 0
 795 -758 -761 0
 794 -757 -761 0
 793 -756 -761 0
 792 -755 -761 0
 791 -761 0
 796 -760 0
 795 -759 0
 794 -758 0
 793 -757 0
 792 -756 0
 791 -755 0
 -743 -754 0
 790 -754 0
 -744 -753 0
 790 -743 -753 0
 789 -753 0
 -745 -752 0
 790 -744 -752 0
 789 -743 -752 0
 788 -752 0
 -746 -751 0
 790 -745 -751 0
 789 -744 -751 0
 788 -743 -751 0
 787 -751 0
 -747 -750 0
 790 -746 -750 0
 789 -745 -750 0
 788 -744 -750 0
 787 -743 -750 0
 786 -750 0
 -748 -749 0
 790 -747 -749 0
 789 -746 -749 0
 788 -745 -749 0
 787 -744 -749 0
 786 -743 -749 0
 785 -749 0
 790 -748 0
 789 -747 0
 788 -746 0
 787 -745 0
 786 -744 0
 785 -743 0
 -731 -742 0
 784 -742 0
 -732 -741 0
 784 -731 -741 0
 783 -741 0
 -733 -740 0
 784 -732 -740 0
 783 -731 -740 0
 782 -740 0
 -734 -739 0
 784 -733 -739 0
 783 -732 -739 0
 782 -731 -739 0
 781 -739 0
 -735 -738 0
 784 -734 -738 0
 783 -733 -738 0
 782 -732 -738 0
 781 -731 -738 0
 780 -738 0
 -736 -737 0
 784 -735 -737 0
 783 -734 -737 0
 782 -733 -737 0
 781 -732 -737 0
 780 -731 -737 0
 779 -737 0
 784 -736 0
 783 -735 0
 782 -734 0
 781 -733 0
 780 -732 0
 779 -731 0
 -719 -730 0
 778 -730 0
 -720 -729 0
 778 -719 -729 0
 777 -729 0
 -721 -728 0
 778 -720 -728 0
 777 -719 -728 0
 776 -728 0
 -722 -727 0
 778 -721 -727 0
 777 -720 -727 0
 776 -719 -727 0
 775 -727 0
 -723 -726 0
 778 -722 -726 0
 777 -721 -726 0
 776 -720 -726 0
 775 -719 -726 0
 774 -726 0
 -724 -725 0
 778 -723 -725 0
 777 -722 -725 0
 776 -721 -725 0
 775 -720 -725 0
 774 -719 -725 0
 773 -725 0
 778 -724 0
 777 -723 0
 776 -722 0
 775 -721 0
 774 -720 0
 773 -719 0
 -707 -718 0
 772 -718 0
 -708 -717 0
 772 -707 -717 0
 771 -717 0
 -709 -716 0
 772 -708 -716 0
 771 -707 -716 0
 770 -716 0
 -710 -715 0
 772 -709 -715 0
 771 -708 -715 0
 770 -707 -715 0
 769 -715 0
 -711 -714 0
 772 -710 -714 0
 771 -709 -714 0
 770 -708 -714 0
 769 -707 -714 0
 768 -714 0
 -712 -713 0
 772 -711 -713 0
 771 -710 -713 0
 770 -709 -713 0
 769 -708 -713 0
 768 -707 -713 0
 767 -713 0
 772 -712 0
 771 -711 0
 770 -710 0
 769 -709 0
 768 -708 0
 767 -707 0
 -695 -706 0
 766 -706 0
 -696 -705 0
 766 -695 -705 0
 765 -705 0
 -697 -704 0
 766 -696 -704 0
 765 -695 -704 0
 764 -704 0
 -698 -703 0
 766 -697 -703 0
 765 -696 -703 0
 764 -695 -703 0
 763 -703 0
 -699 -702 0
 766 -698 -702 0
 765 -697 -702 0
 764 -696 -702 0
 763 -695 -702 0
 762 -702 0
 -700 -701 0
 766 -699 -701 0
 765 -698 -701 0
 764 -697 -701 0
 763 -696 -701 0
 762 -695 -701 0
 761 -701 0
 766 -700 0
 765 -699 0
 764 -698 0
 763 -697 0
 762 -696 0
 761 -695 0
 -683 -694 0
 760 -694 0
 -684 -693 0
 760 -683 -693 0
 759 -693 0
 -685 -692 0
 760 -684 -692 0
 759 -683 -692 0
 758 -692 0
 -686 -691 0
 760 -685 -691 0
 759 -684 -691 0
 758 -683 -691 0
 757 -691 0
 -687 -690 0
 760 -686 -690 0
 759 -685 -690 0
 758 -684 -690 0
 757 -683 -690 0
 756 -690 0
 -688 -689 0
 760 -687 -689 0
 759 -686 -689 0
 758 -685 -689 0
 757 -684 -689 0
 756 -683 -689 0
 755 -689 0
 760 -688 0
 759 -687 0
 758 -686 0
 757 -685 0
 756 -684 0
 755 -683 0
 -671 -682 0
 754 -682 0
 -672 -681 0
 754 -671 -681 0
 753 -681 0
 -673 -680 0
 754 -672 -680 0
 753 -671 -680 0
 752 -680 0
 -674 -679 0
 754 -673 -679 0
 753 -672 -679 0
 752 -671 -679 0
 751 -679 0
 -675 -678 0
 754 -674 -678 0
 753 -673 -678 0
 752 -672 -678 0
 751 -671 -678 0
 750 -678 0
 -676 -677 0
 754 -675 -677 0
 753 -674 -677 0
 752 -673 -677 0
 751 -672 -677 0
 750 -671 -677 0
 749 -677 0
 754 -676 0
 753 -675 0
 752 -674 0
 751 -673 0
 750 -672 0
 749 -671 0
 -659 -670 0
 748 -670 0
 -660 -669 0
 748 -659 -669 0
 747 -669 0
 -661 -668 0
 748 -660 -668 0
 747 -659 -668 0
 746 -668 0
 -662 -667 0
 748 -661 -667 0
 747 -660 -667 0
 746 -659 -667 0
 745 -667 0
 -663 -666 0
 748 -662 -666 0
 747 -661 -666 0
 746 -660 -666 0
 745 -659 -666 0
 744 -666 0
 -664 -665 0
 748 -663 -665 0
 747 -662 -665 0
 746 -661 -665 0
 745 -660 -665 0
 744 -659 -665 0
 743 -665 0
 748 -664 0
 747 -663 0
 746 -662 0
 745 -661 0
 744 -660 0
 743 -659 0
 -653 -658 0
 742 -652 -658 0
 741 -651 -658 0
 740 -658 0
 -654 -657 0
 742 -653 -657 0
 741 -652 -657 0
 740 -651 -657 0
 739 -657 0
 742 -654 -656 0
 741 -653 -656 0
 740 -652 -656 0
 739 -651 -656 0
 738 -656 0
 741 -654 -655 0
 740 -653 -655 0
 739 -652 -655 0
 738 -651 -655 0
 737 -655 0
 740 -654 0
 739 -653 0
 738 -652 0
 737 -651 0
 -645 -650 0
 736 -644 -650 0
 735 -643 -650 0
 734 -650 0
 -646 -649 0
 736 -645 -649 0
 735 -644 -649 0
 734 -643 -649 0
 733 -649 0
 736 -646 -648 0
 735 -645 -648 0
 734 -644 -648 0
 733 -643 -648 0
 732 -648 0
 735 -646 -647 0
 734 -645 -647 0
 733 -644 -647 0
 732 -643 -647 0
 731 -647 0
 734 -646 0
 733 -645 0
 732 -644 0
 731 -643 0
 -637 -642 0
 730 -636 -642 0
 729 -635 -642 0
 728 -642 0
 -638 -641 0
 730 -637 -641 0
 729 -636 -641 0
 728 -635 -641 0
 727 -641 0
 730 -638 -640 0
 729 -637 -640 0
 728 -636 -640 0
 727 -635 -640 0
 726 -640 0
 729 -638 -639 0
 728 -637 -639 0
 727 -636 -639 0
 726 -635 -639 0
 725 -639 0
 728 -638 0
 727 -637 0
 726 -636 0
 725 -635 0
 -629 -634 0
 724 -628 -634 0
 723 -627 -634 0
 722 -634 0
 -630 -633 0
 724 -629 -633 0
 723 -628 -633 0
 722 -627 -633 0
 721 -633 0
 724 -630 -632 0
 723 -629 -632 0
 722 -628 -632 0
 721 -627 -632 0
 720 -632 0
 723 -630 -631 0
 722 -629 -631 0
 721 -628 -631 0
 720 -627 -631 0
 719 -631 0
 722 -630 0
 721 -629 0
 720 -628 0
 719 -627 0
 -621 -626 0
 718 -620 -626 0
 717 -619 -626 0
 716 -626 0
 -622 -625 0
 718 -621 -625 0
 717 -620 -625 0
 716 -619 -625 0
 715 -625 0
 718 -622 -624 0
 717 -621 -624 0
 716 -620 -624 0
 715 -619 -624 0
 714 -624 0
 717 -622 -623 0
 716 -621 -623 0
 715 -620 -623 0
 714 -619 -623 0
 713 -623 0
 716 -622 0
 715 -621 0
 714 -620 0
 713 -619 0
 -613 -618 0
 712 -612 -618 0
 711 -611 -618 0
 710 -618 0
 -614 -617 0
 712 -613 -617 0
 711 -612 -617 0
 710 -611 -617 0
 709 -617 0
 712 -614 -616 0
 711 -613 -616 0
 710 -612 -616 0
 709 -611 -616 0
 708 -616 0
 711 -614 -615 0
 710 -613 -615 0
 709 -612 -615 0
 708 -611 -615 0
 707 -615 0
 710 -614 0
 709 -613 0
 708 -612 0
 707 -611 0
 -605 -610 0
 706 -604 -610 0
 705 -603 -610 0
 704 -610 0
 -606 -609 0
 706 -605 -609 0
 705 -604 -609 0
 704 -603 -609 0
 703 -609 0
 706 -606 -608 0
 705 -605 -608 0
 704 -604 -608 0
 703 -603 -608 0
 702 -608 0
 705 -606 -607 0
 704 -605 -607 0
 703 -604 -607 0
 702 -603 -607 0
 701 -607 0
 704 -606 0
 703 -605 0
 702 -604 0
 701 -603 0
 -597 -602 0
 700 -596 -602 0
 699 -595 -602 0
 698 -602 0
 -598 -601 0
 700 -597 -601 0
 699 -596 -601 0
 698 -595 -601 0
 697 -601 0
 700 -598 -600 0
 699 -597 -600 0
 698 -596 -600 0
 697 -595 -600 0
 696 -600 0
 699 -598 -599 0
 698 -597 -599 0
 697 -596 -599 0
 696 -595 -599 0
 695 -599 0
 698 -598 0
 697 -597 0
 696 -596 0
 695 -595 0
 -589 -594 0
 694 -588 -594 0
 693 -587 -594 0
 692 -594 0
 -590 -593 0
 694 -589 -593 0
 693 -588 -593 0
 692 -587 -593 0
 691 -593 0
 694 -590 -592 0
 693 -589 -592 0
 692 -588 -592 0
 691 -587 -592 0
 690 -592 0
 693 -590 -591 0
 692 -589 -591 0
 691 -588 -591 0
 690 -587 -591 0
 689 -591 0
 692 -590 0
 691 -589 0
 690 -588 0
 689 -587 0
 -581 -586 0
 688 -580 -586 0
 687 -579 -586 0
 686 -586 0
 -582 -585 0
 688 -581 -585 0
 687 -580 -585 0
 686 -579 -585 0
 685 -585 0
 688 -582 -584 0
 687 -581 -584 0
 686 -580 -584 0
 685 -579 -584 0
 684 -584 0
 687 -582 -583 0
 686 -581 -583 0
 685 -580 -583 0
 684 -579 -583 0
 683 -583 0
 686 -582 0
 685 -581 0
 684 -580 0
 683 -579 0
 -573 -578 0
 682 -572 -578 0
 681 -571 -578 0
 680 -578 0
 -574 -577 0
 682 -573 -577 0
 681 -572 -577 0
 680 -571 -577 0
 679 -577 0
 682 -574 -576 0
 681 -573 -576 0
 680 -572 -576 0
 679 -571 -576 0
 678 -576 0
 681 -574 -575 0
 680 -573 -575 0
 679 -572 -575 0
 678 -571 -575 0
 677 -575 0
 680 -574 0
 679 -573 0
 678 -572 0
 677 -571 0
 -565 -570 0
 676 -564 -570 0
 675 -563 -570 0
 674 -570 0
 -566 -569 0
 676 -565 -569 0
 675 -564 -569 0
 674 -563 -569 0
 673 -569 0
 676 -566 -568 0
 675 -565 -568 0
 674 -564 -568 0
 673 -563 -568 0
 672 -568 0
 675 -566 -567 0
 674 -565 -567 0
 673 -564 -567 0
 672 -563 -567 0
 671 -567 0
 674 -566 0
 673 -565 0
 672 -564 0
 671 -563 0
 -557 -562 0
 670 -556 -562 0
 669 -555 -562 0
 668 -562 0
 -558 -561 0
 670 -557 -561 0
 669 -556 -561 0
 668 -555 -561 0
 667 -561 0
 670 -558 -560 0
 669 -557 -560 0
 668 -556 -560 0
 667 -555 -560 0
 666 -560 0
 669 -558 -559 0
 668 -557 -559 0
 667 -556 -559 0
 666 -555 -559 0
 665 -559 0
 668 -558 0
 667 -557 0
 666 -556 0
 665 -555 0
 664 -550 -554 0
 663 -549 -554 0
 662 -554 0
 663 -550 -553 0
 662 -549 -553 0
 661 -553 0
 662 -550 -552 0
 661 -549 -552 0
 660 -552 0
 661 -550 -551 0
 660 -549 -551 0
 659 -551 0
 660 -550 0
 659 -549 0
 658 -546 -548 0
 657 -545 -548 0
 656 -548 0
 657 -546 -547 0
 656 -545 -547 0
 655 -547 0
 656 -546 0
 655 -545 0
 654 -542 -544 0
 653 -541 -544 0
 652 -544 0
 653 -542 -543 0
 652 -541 -543 0
 651 -543 0
 652 -542 0
 651 -541 0
 650 -538 -540 0
 649 -537 -540 0
 648 -540 0
 649 -538 -539 0
 648 -537 -539 0
 647 -539 0
 648 -538 0
 647 -537 0
 646 -534 -536 0
 645 -533 -536 0
 644 -536 0
 645 -534 -535 0
 644 -533 -535 0
 643 -535 0
 644 -534 0
 643 -533 0
 642 -530 -532 0
 641 -529 -532 0
 640 -532 0
 641 -530 -531 0
 640 -529 -531 0
 639 -531 0
 640 -530 0
 639 -529 0
 638 -526 -528 0
 637 -525 -528 0
 636 -528 0
 637 -526 -527 0
 636 -525 -527 0
 635 -527 0
 636 -526 0
 635 -525 0
 634 -522 -524 0
 633 -521 -524 0
 632 -524 0
 633 -522 -523 0
 632 -521 -523 0
 631 -523 0
 632 -522 0
 631 -521 0
 630 -518 -520 0
 629 -517 -520 0
 628 -520 0
 629 -518 -519 0
 628 -517 -519 0
 627 -519 0
 628 -518 0
 627 -517 0
 626 -514 -516 0
 625 -513 -516 0
 624 -516 0
 625 -514 -515 0
 624 -513 -515 0
 623 -515 0
 624 -514 0
 623 -513 0
 622 -510 -512 0
 621 -509 -512 0
 620 -512 0
 621 -510 -511 0
 620 -509 -511 0
 619 -511 0
 620 -510 0
 619 -509 0
 618 -506 -508 0
 617 -505 -508 0
 616 -508 0
 617 -506 -507 0
 616 -505 -507 0
 615 -507 0
 616 -506 0
 615 -505 0
 614 -502 -504 0
 613 -501 -504 0
 612 -504 0
 613 -502 -503 0
 612 -501 -503 0
 611 -503 0
 612 -502 0
 611 -501 0
 610 -498 -500 0
 609 -497 -500 0
 608 -500 0
 609 -498 -499 0
 608 -497 -499 0
 607 -499 0
 608 -498 0
 607 -497 0
 606 -494 -496 0
 605 -493 -496 0
 604 -496 0
 605 -494 -495 0
 604 -493 -495 0
 603 -495 0
 604 -494 0
 603 -493 0
 602 -490 -492 0
 601 -489 -492 0
 600 -492 0
 601 -490 -491 0
 600 -489 -491 0
 599 -491 0
 600 -490 0
 599 -489 0
 598 -486 -488 0
 597 -485 -488 0
 596 -488 0
 597 -486 -487 0
 596 -485 -487 0
 595 -487 0
 596 -486 0
 595 -485 0
 594 -482 -484 0
 593 -481 -484 0
 592 -484 0
 593 -482 -483 0
 592 -481 -483 0
 591 -483 0
 592 -482 0
 591 -481 0
 590 -478 -480 0
 589 -477 -480 0
 588 -480 0
 589 -478 -479 0
 588 -477 -479 0
 587 -479 0
 588 -478 0
 587 -477 0
 586 -474 -476 0
 585 -473 -476 0
 584 -476 0
 585 -474 -475 0
 584 -473 -475 0
 583 -475 0
 584 -474 0
 583 -473 0
 582 -470 -472 0
 581 -469 -472 0
 580 -472 0
 581 -470 -471 0
 580 -469 -471 0
 579 -471 0
 580 -470 0
 579 -469 0
 578 -466 -468 0
 577 -465 -468 0
 576 -468 0
 577 -466 -467 0
 576 -465 -467 0
 575 -467 0
 576 -466 0
 575 -465 0
 574 -462 -464 0
 573 -461 -464 0
 572 -464 0
 573 -462 -463 0
 572 -461 -463 0
 571 -463 0
 572 -462 0
 571 -461 0
 570 -458 -460 0
 569 -457 -460 0
 568 -460 0
 569 -458 -459 0
 568 -457 -459 0
 567 -459 0
 568 -458 0
 567 -457 0
 566 -454 -456 0
 565 -453 -456 0
 564 -456 0
 565 -454 -455 0
 564 -453 -455 0
 563 -455 0
 564 -454 0
 563 -453 0
 562 -450 -452 0
 561 -449 -452 0
 560 -452 0
 561 -450 -451 0
 560 -449 -451 0
 559 -451 0
 560 -450 0
 559 -449 0
 558 -446 -448 0
 557 -445 -448 0
 556 -448 0
 557 -446 -447 0
 556 -445 -447 0
 555 -447 0
 556 -446 0
 555 -445 0
 554 -442 -444 0
 553 -441 -444 0
 552 -444 0
 553 -442 -443 0
 552 -441 -443 0
 551 -443 0
 552 -442 0
 551 -441 0
 550 -8 -4 0
 549 -4 0
 549 -8 0
 548 -16 -12 0
 547 -12 0
 547 -16 0
 546 -24 -20 0
 545 -20 0
 545 -24 0
 544 -32 -28 0
 543 -28 0
 543 -32 0
 542 -40 -36 0
 541 -36 0
 541 -40 0
 540 -48 -44 0
 539 -44 0
 539 -48 0
 538 -56 -52 0
 537 -52 0
 537 -56 0
 536 -64 -60 0
 535 -60 0
 535 -64 0
 534 -72 -68 0
 533 -68 0
 533 -72 0
 532 -80 -76 0
 531 -76 0
 531 -80 0
 530 -88 -84 0
 529 -84 0
 529 -88 0
 528 -96 -92 0
 527 -92 0
 527 -96 0
 526 -104 -100 0
 525 -100 0
 525 -104 0
 524 -112 -108 0
 523 -108 0
 523 -112 0
 522 -120 -116 0
 521 -116 0
 521 -120 0
 520 -128 -124 0
 519 -124 0
 519 -128 0
 518 -136 -132 0
 517 -132 0
 517 -136 0
 516 -144 -140 0
 515 -140 0
 515 -144 0
 514 -152 -148 0
 513 -148 0
 513 -152 0
 512 -160 -156 0
 511 -156 0
 511 -160 0
 510 -168 -164 0
 509 -164 0
 509 -168 0
 508 -176 -172 0
 507 -172 0
 507 -176 0
 506 -184 -180 0
 505 -180 0
 505 -184 0
 504 -192 -188 0
 503 -188 0
 503 -192 0
 502 -200 -196 0
 501 -196 0
 501 -200 0
 500 -208 -204 0
 499 -204 0
 499 -208 0
 498 -216 -212 0
 497 -212 0
 497 -216 0
 496 -224 -220 0
 495 -220 0
 495 -224 0
 494 -232 -228 0
 493 -228 0
 493 -232 0
 492 -240 -236 0
 491 -236 0
 491 -240 0
 490 -248 -244 0
 489 -244 0
 489 -248 0
 488 -256 -252 0
 487 -252 0
 487 -256 0
 486 -264 -260 0
 485 -260 0
 485 -264 0
 484 -272 -268 0
 483 -268 0
 483 -272 0
 482 -280 -276 0
 481 -276 0
 481 -280 0
 480 -288 -284 0
 479 -284 0
 479 -288 0
 478 -296 -292 0
 477 -292 0
 477 -296 0
 476 -304 -300 0
 475 -300 0
 475 -304 0
 474 -312 -308 0
 473 -308 0
 473 -312 0
 472 -320 -316 0
 471 -316 0
 471 -320 0
 470 -328 -324 0
 469 -324 0
 469 -328 0
 468 -336 -332 0
 467 -332 0
 467 -336 0
 466 -344 -340 0
 465 -340 0
 465 -344 0
 464 -352 -348 0
 463 -348 0
 463 -352 0
 462 -360 -356 0
 461 -356 0
 461 -360 0
 460 -368 -364 0
 459 -364 0
 459 -368 0
 458 -376 -372 0
 457 -372 0
 457 -376 0
 456 -384 -380 0
 455 -380 0
 455 -384 0
 454 -392 -388 0
 453 -388 0
 453 -392 0
 452 -400 -396 0
 451 -396 0
 451 -400 0
 450 -408 -404 0
 449 -404 0
 449 -408 0
 448 -416 -412 0
 447 -412 0
 447 -416 0
 446 -424 -420 0
 445 -420 0
 445 -424 0
 444 -432 -428 0
 443 -428 0
 443 -432 0
 442 -440 -436 0
 441 -436 0
 441 -440 0
 -440 -436 0
 -436 -432 0
 -432 -428 0
 -428 -424 0
 -424 -420 0
 -420 -416 0
 -416 -412 0
 -412 -408 0
 -408 -404 0
 -440 -396 0
 -436 -396 0
 -436 -392 0
 -432 -392 0
 -396 -392 0
 -432 -388 0
 -428 -388 0
 -392 -388 0
 -428 -384 0
 -424 -384 0
 -388 -384 0
 -424 -380 0
 -420 -380 0
 -384 -380 0
 -420 -376 0
 -416 -376 0
 -380 -376 0
 -416 -372 0
 -412 -372 0
 -376 -372 0
 -412 -368 0
 -408 -368 0
 -372 -368 0
 -408 -364 0
 -404 -364 0
 -368 -364 0
 -400 -360 0
 -400 -356 0
 -360 -356 0
 -396 -352 0
 -392 -352 0
 -392 -348 0
 -388 -348 0
 -352 -348 0
 -388 -344 0
 -384 -344 0
 -348 -344 0
 -384 -340 0
 -380 -340 0
 -344 -340 0
 -380 -336 0
 -376 -336 0
 -340 -336 0
 -376 -332 0
 -372 -332 0
 -336 -332 0
 -372 -328 0
 -368 -328 0
 -332 -328 0
 -368 -324 0
 -364 -324 0
 -328 -324 0
 -360 -320 0
 -360 -316 0
 -356 -316 0
 -320 -316 0
 -356 -312 0
 -316 -312 0
 -352 -308 0
 -348 -308 0
 -348 -304 0
 -344 -304 0
 -308 -304 0
 -344 -300 0
 -340 -300 0
 -304 -300 0
 -340 -296 0
 -336 -296 0
 -300 -296 0
 -336 -292 0
 -332 -292 0
 -296 -292 0
 -332 -288 0
 -328 -288 0
 -292 -288 0
 -328 -284 0
 -324 -284 0
 -288 -284 0
 -320 -280 0
 -320 -276 0
 -316 -276 0
 -280 -276 0
 -316 -272 0
 -312 -272 0
 -276 -272 0
 -312 -268 0
 -272 -268 0
 -308 -264 0
 -304 -264 0
 -304 -260 0
 -300 -260 0
 -264 -260 0
 -300 -256 0
 -296 -256 0
 -260 -256 0
 -296 -252 0
 -292 -252 0
 -256 -252 0
 -292 -248 0
 -288 -248 0
 -252 -248 0
 -288 -244 0
 -284 -244 0
 -248 -244 0
 -280 -240 0
 -264 -240 0
 -280 -236 0
 -276 -236 0
 -240 -236 0
 -276 -232 0
 -272 -232 0
 -236 -232 0
 -272 -228 0
 -268 -228 0
 -232 -228 0
 -268 -224 0
 -228 -224 0
 -244 -224 0
 -264 -220 0
 -260 -220 0
 -240 -220 0
 -280 -220 0
 -260 -216 0
 -256 -216 0
 -220 -216 0
 -256 -212 0
 -252 -212 0
 -216 -212 0
 -252 -208 0
 -248 -208 0
 -212 -208 0
 -248 -204 0
 -244 -204 0
 -208 -204 0
 -224 -204 0
 -268 -204 0
 -240 -200 0
 -264 -200 0
 -308 -200 0
 -240 -196 0
 -236 -196 0
 -200 -196 0
 -236 -192 0
 -232 -192 0
 -196 -192 0
 -232 -188 0
 -228 -188 0
 -192 -188 0
 -228 -184 0
 -224 -184 0
 -188 -184 0
 -224 -180 0
 -184 -180 0
 -244 -180 0
 -284 -180 0
 -220 -176 0
 -216 -176 0
 -280 -176 0
 -320 -176 0
 -216 -172 0
 -212 -172 0
 -176 -172 0
 -212 -168 0
 -208 -168 0
 -172 -168 0
 -208 -164 0
 -204 -164 0
 -168 -164 0
 -268 -164 0
 -312 -164 0
 -200 -160 0
 -308 -160 0
 -352 -160 0
 -200 -156 0
 -196 -156 0
 -160 -156 0
 -196 -152 0
 -192 -152 0
 -156 -152 0
 -192 -148 0
 -188 -148 0
 -152 -148 0
 -188 -144 0
 -184 -144 0
 -148 -144 0
 -184 -140 0
 -180 -140 0
 -144 -140 0
 -180 -136 0
 -140 -136 0
 -284 -136 0
 -324 -136 0
 -176 -132 0
 -172 -132 0
 -320 -132 0
 -360 -132 0
 -172 -128 0
 -168 -128 0
 -132 -128 0
 -168 -124 0
 -164 -124 0
 -128 -124 0
 -312 -124 0
 -356 -124 0
 -160 -120 0
 -352 -120 0
 -396 -120 0
 -160 -116 0
 -156 -116 0
 -120 -116 0
 -156 -112 0
 -152 -112 0
 -116 -112 0
 -152 -108 0
 -148 -108 0
 -112 -108 0
 -148 -104 0
 -144 -104 0
 -108 -104 0
 -144 -100 0
 -140 -100 0
 -104 -100 0
 -140 -96 0
 -136 -96 0
 -100 -96 0
 -136 -92 0
 -96 -92 0
 -324 -92 0
 -364 -92 0
 -132 -88 0
 -128 -88 0
 -360 -88 0
 -400 -88 0
 -128 -84 0
 -124 -84 0
 -88 -84 0
 -356 -84 0
 -400 -84 0
 -120 -80 0
 -396 -80 0
 -440 -80 0
 -120 -76 0
 -116 -76 0
 -80 -76 0
 -116 -72 0
 -112 -72 0
 -76 -72 0
 -112 -68 0
 -108 -68 0
 -72 -68 0
 -108 -64 0
 -104 -64 0
 -68 -64 0
 -104 -60 0
 -100 -60 0
 -64 -60 0
 -100 -56 0
 -96 -56 0
 -60 -56 0
 -96 -52 0
 -92 -52 0
 -56 -52 0
 -92 -48 0
 -52 -48 0
 -364 -48 0
 -404 -48 0
 -424 -44 0
 -428 -44 0
 -432 -44 0
 -436 -44 0
 -440 -44 0
 -440 -40 0
 -80 -40 0
 -80 -36 0
 -440 -36 0
 -76 -36 0
 -40 -36 0
 -76 -32 0
 -440 -32 0
 -72 -32 0
 -36 -32 0
 -72 -28 0
 -440 -28 0
 -68 -28 0
 -32 -28 0
 -68 -24 0
 -440 -24 0
 -64 -24 0
 -28 -24 0
 -64 -20 0
 -440 -20 0
 -60 -20 0
 -24 -20 0
 -60 -16 0
 -440 -16 0
 -56 -16 0
 -20 -16 0
 -56 -12 0
 -440 -12 0
 -52 -12 0
 -16 -12 0
 -52 -8 0
 -440 -8 0
 -48 -8 0
 -12 -8 0
 -44 -4 0
 -408 -4 0
 -412 -4 0
 -416 -4 0
 -420 -4 0
 -424 -4 0
 -48 -4 0
 -440 -4 0
 -8 -4 0
 -404 -4 0
 -439 -435 0
 -435 -431 0
 -431 -427 0
 -427 -423 0
 -423 -419 0
 -419 -415 0
 -415 -411 0
 -411 -407 0
 -407 -403 0
 -439 -395 0
 -435 -395 0
 -435 -391 0
 -431 -391 0
 -395 -391 0
 -431 -387 0
 -427 -387 0
 -391 -387 0
 -427 -383 0
 -423 -383 0
 -387 -383 0
 -423 -379 0
 -419 -379 0
 -383 -379 0
 -419 -375 0
 -415 -375 0
 -379 -375 0
 -415 -371 0
 -411 -371 0
 -375 -371 0
 -411 -367 0
 -407 -367 0
 -371 -367 0
 -407 -363 0
 -403 -363 0
 -367 -363 0
 -399 -359 0
 -399 -355 0
 -359 -355 0
 -395 -351 0
 -391 -351 0
 -391 -347 0
 -387 -347 0
 -351 -347 0
 -387 -343 0
 -383 -343 0
 -347 -343 0
 -383 -339 0
 -379 -339 0
 -343 -339 0
 -379 -335 0
 -375 -335 0
 -339 -335 0
 -375 -331 0
 -371 -331 0
 -335 -331 0
 -371 -327 0
 -367 -327 0
 -331 -327 0
 -367 -323 0
 -363 -323 0
 -327 -323 0
 -359 -319 0
 -359 -315 0
 -355 -315 0
 -319 -315 0
 -355 -311 0
 -315 -311 0
 -351 -307 0
 -347 -307 0
 -347 -303 0
 -343 -303 0
 -307 -303 0
 -343 -299 0
 -339 -299 0
 -303 -299 0
 -339 -295 0
 -335 -295 0
 -299 -295 0
 -335 -291 0
 -331 -291 0
 -295 -291 0
 -331 -287 0
 -327 -287 0
 -291 -287 0
 -327 -283 0
 -323 -283 0
 -287 -283 0
 -319 -279 0
 -319 -275 0
 -315 -275 0
 -279 -275 0
 -315 -271 0
 -311 -271 0
 -275 -271 0
 -311 -267 0
 -271 -267 0
 -307 -263 0
 -303 -263 0
 -303 -259 0
 -299 -259 0
 -263 -259 0
 -299 -255 0
 -295 -255 0
 -259 -255 0
 -295 -251 0
 -291 -251 0
 -255 -251 0
 -291 -247 0
 -287 -247 0
 -251 -247 0
 -287 -243 0
 -283 -243 0
 -247 -243 0
 -279 -239 0
 -263 -239 0
 -279 -235 0
 -275 -235 0
 -239 -235 0
 -275 -231 0
 -271 -231 0
 -235 -231 0
 -271 -227 0
 -267 -227 0
 -231 -227 0
 -267 -223 0
 -227 -223 0
 -243 -223 0
 -263 -219 0
 -259 -219 0
 -239 -219 0
 -279 -219 0
 -259 -215 0
 -255 -215 0
 -219 -215 0
 -255 -211 0
 -251 -211 0
 -215 -211 0
 -251 -207 0
 -247 -207 0
 -211 -207 0
 -247 -203 0
 -243 -203 0
 -207 -203 0
 -223 -203 0
 -267 -203 0
 -239 -199 0
 -263 -199 0
 -307 -199 0
 -239 -195 0
 -235 -195 0
 -199 -195 0
 -235 -191 0
 -231 -191 0
 -195 -191 0
 -231 -187 0
 -227 -187 0
 -191 -187 0
 -227 -183 0
 -223 -183 0
 -187 -183 0
 -223 -179 0
 -183 -179 0
 -243 -179 0
 -283 -179 0
 -219 -175 0
 -215 -175 0
 -279 -175 0
 -319 -175 0
 -215 -171 0
 -211 -171 0
 -175 -171 0
 -211 -167 0
 -207 -167 0
 -171 -167 0
 -207 -163 0
 -203 -163 0
 -167 -163 0
 -267 -163 0
 -311 -163 0
 -199 -159 0
 -307 -159 0
 -351 -159 0
 -199 -155 0
 -195 -155 0
 -159 -155 0
 -195 -151 0
 -191 -151 0
 -155 -151 0
 -191 -147 0
 -187 -147 0
 -151 -147 0
 -187 -143 0
 -183 -143 0
 -147 -143 0
 -183 -139 0
 -179 -139 0
 -143 -139 0
 -179 -135 0
 -139 -135 0
 -283 -135 0
 -323 -135 0
 -175 -131 0
 -171 -131 0
 -319 -131 0
 -359 -131 0
 -171 -127 0
 -167 -127 0
 -131 -127 0
 -167 -123 0
 -163 -123 0
 -127 -123 0
 -311 -123 0
 -355 -123 0
 -159 -119 0
 -351 -119 0
 -395 -119 0
 -159 -115 0
 -155 -115 0
 -119 -115 0
 -155 -111 0
 -151 -111 0
 -115 -111 0
 -151 -107 0
 -147 -107 0
 -111 -107 0
 -147 -103 0
 -143 -103 0
 -107 -103 0
 -143 -99 0
 -139 -99 0
 -103 -99 0
 -139 -95 0
 -135 -95 0
 -99 -95 0
 -135 -91 0
 -95 -91 0
 -323 -91 0
 -363 -91 0
 -131 -87 0
 -127 -87 0
 -359 -87 0
 -399 -87 0
 -127 -83 0
 -123 -83 0
 -87 -83 0
 -355 -83 0
 -399 -83 0
 -119 -79 0
 -395 -79 0
 -439 -79 0
 -119 -75 0
 -115 -75 0
 -79 -75 0
 -115 -71 0
 -111 -71 0
 -75 -71 0
 -111 -67 0
 -107 -67 0
 -71 -67 0
 -107 -63 0
 -103 -63 0
 -67 -63 0
 -103 -59 0
 -99 -59 0
 -63 -59 0
 -99 -55 0
 -95 -55 0
 -59 -55 0
 -95 -51 0
 -91 -51 0
 -55 -51 0
 -91 -47 0
 -51 -47 0
 -363 -47 0
 -403 -47 0
 -423 -43 0
 -427 -43 0
 -431 -43 0
 -435 -43 0
 -439 -43 0
 -439 -39 0
 -79 -39 0
 -79 -35 0
 -439 -35 0
 -75 -35 0
 -39 -35 0
 -75 -31 0
 -439 -31 0
 -71 -31 0
 -35 -31 0
 -71 -27 0
 -439 -27 0
 -67 -27 0
 -31 -27 0
 -67 -23 0
 -439 -23 0
 -63 -23 0
 -27 -23 0
 -63 -19 0
 -439 -19 0
 -59 -19 0
 -23 -19 0
 -59 -15 0
 -439 -15 0
 -55 -15 0
 -19 -15 0
 -55 -11 0
 -439 -11 0
 -51 -11 0
 -15 -11 0
 -51 -7 0
 -439 -7 0
 -47 -7 0
 -11 -7 0
 -43 -3 0
 -407 -3 0
 -411 -3 0
 -415 -3 0
 -419 -3 0
 -423 -3 0
 -47 -3 0
 -439 -3 0
 -7 -3 0
 -403 -3 0
 -438 -434 0
 -434 -430 0
 -430 -426 0
 -426 -422 0
 -422 -418 0
 -418 -414 0
 -414 -410 0
 -410 -406 0
 -406 -402 0
 -438 -394 0
 -434 -394 0
 -434 -390 0
 -430 -390 0
 -394 -390 0
 -430 -386 0
 -426 -386 0
 -390 -386 0
 -426 -382 0
 -422 -382 0
 -386 -382 0
 -422 -378 0
 -418 -378 0
 -382 -378 0
 -418 -374 0
 -414 -374 0
 -378 -374 0
 -414 -370 0
 -410 -370 0
 -374 -370 0
 -410 -366 0
 -406 -366 0
 -370 -366 0
 -406 -362 0
 -402 -362 0
 -366 -362 0
 -398 -358 0
 -398 -354 0
 -358 -354 0
 -394 -350 0
 -390 -350 0
 -390 -346 0
 -386 -346 0
 -350 -346 0
 -386 -342 0
 -382 -342 0
 -346 -342 0
 -382 -338 0
 -378 -338 0
 -342 -338 0
 -378 -334 0
 -374 -334 0
 -338 -334 0
 -374 -330 0
 -370 -330 0
 -334 -330 0
 -370 -326 0
 -366 -326 0
 -330 -326 0
 -366 -322 0
 -362 -322 0
 -326 -322 0
 -358 -318 0
 -358 -314 0
 -354 -314 0
 -318 -314 0
 -354 -310 0
 -314 -310 0
 -350 -306 0
 -346 -306 0
 -346 -302 0
 -342 -302 0
 -306 -302 0
 -342 -298 0
 -338 -298 0
 -302 -298 0
 -338 -294 0
 -334 -294 0
 -298 -294 0
 -334 -290 0
 -330 -290 0
 -294 -290 0
 -330 -286 0
 -326 -286 0
 -290 -286 0
 -326 -282 0
 -322 -282 0
 -286 -282 0
 -318 -278 0
 -318 -274 0
 -314 -274 0
 -278 -274 0
 -314 -270 0
 -310 -270 0
 -274 -270 0
 -310 -266 0
 -270 -266 0
 -306 -262 0
 -302 -262 0
 -302 -258 0
 -298 -258 0
 -262 -258 0
 -298 -254 0
 -294 -254 0
 -258 -254 0
 -294 -250 0
 -290 -250 0
 -254 -250 0
 -290 -246 0
 -286 -246 0
 -250 -246 0
 -286 -242 0
 -282 -242 0
 -246 -242 0
 -278 -238 0
 -262 -238 0
 -278 -234 0
 -274 -234 0
 -238 -234 0
 -274 -230 0
 -270 -230 0
 -234 -230 0
 -270 -226 0
 -266 -226 0
 -230 -226 0
 -266 -222 0
 -226 -222 0
 -242 -222 0
 -262 -218 0
 -258 -218 0
 -238 -218 0
 -278 -218 0
 -258 -214 0
 -254 -214 0
 -218 -214 0
 -254 -210 0
 -250 -210 0
 -214 -210 0
 -250 -206 0
 -246 -206 0
 -210 -206 0
 -246 -202 0
 -242 -202 0
 -206 -202 0
 -222 -202 0
 -266 -202 0
 -238 -198 0
 -262 -198 0
 -306 -198 0
 -238 -194 0
 -234 -194 0
 -198 -194 0
 -234 -190 0
 -230 -190 0
 -194 -190 0
 -230 -186 0
 -226 -186 0
 -190 -186 0
 -226 -182 0
 -222 -182 0
 -186 -182 0
 -222 -178 0
 -182 -178 0
 -242 -178 0
 -282 -178 0
 -218 -174 0
 -214 -174 0
 -278 -174 0
 -318 -174 0
 -214 -170 0
 -210 -170 0
 -174 -170 0
 -210 -166 0
 -206 -166 0
 -170 -166 0
 -206 -162 0
 -202 -162 0
 -166 -162 0
 -266 -162 0
 -310 -162 0
 -198 -158 0
 -306 -158 0
 -350 -158 0
 -198 -154 0
 -194 -154 0
 -158 -154 0
 -194 -150 0
 -190 -150 0
 -154 -150 0
 -190 -146 0
 -186 -146 0
 -150 -146 0
 -186 -142 0
 -182 -142 0
 -146 -142 0
 -182 -138 0
 -178 -138 0
 -142 -138 0
 -178 -134 0
 -138 -134 0
 -282 -134 0
 -322 -134 0
 -174 -130 0
 -170 -130 0
 -318 -130 0
 -358 -130 0
 -170 -126 0
 -166 -126 0
 -130 -126 0
 -166 -122 0
 -162 -122 0
 -126 -122 0
 -310 -122 0
 -354 -122 0
 -158 -118 0
 -350 -118 0
 -394 -118 0
 -158 -114 0
 -154 -114 0
 -118 -114 0
 -154 -110 0
 -150 -110 0
 -114 -110 0
 -150 -106 0
 -146 -106 0
 -110 -106 0
 -146 -102 0
 -142 -102 0
 -106 -102 0
 -142 -98 0
 -138 -98 0
 -102 -98 0
 -138 -94 0
 -134 -94 0
 -98 -94 0
 -134 -90 0
 -94 -90 0
 -322 -90 0
 -362 -90 0
 -130 -86 0
 -126 -86 0
 -358 -86 0
 -398 -86 0
 -126 -82 0
 -122 -82 0
 -86 -82 0
 -354 -82 0
 -398 -82 0
 -118 -78 0
 -394 -78 0
 -438 -78 0
 -118 -74 0
 -114 -74 0
 -78 -74 0
 -114 -70 0
 -110 -70 0
 -74 -70 0
 -110 -66 0
 -106 -66 0
 -70 -66 0
 -106 -62 0
 -102 -62 0
 -66 -62 0
 -102 -58 0
 -98 -58 0
 -62 -58 0
 -98 -54 0
 -94 -54 0
 -58 -54 0
 -94 -50 0
 -90 -50 0
 -54 -50 0
 -90 -46 0
 -50 -46 0
 -362 -46 0
 -402 -46 0
 -422 -42 0
 -426 -42 0
 -430 -42 0
 -434 -42 0
 -438 -42 0
 -438 -38 0
 -78 -38 0
 -78 -34 0
 -438 -34 0
 -74 -34 0
 -38 -34 0
 -74 -30 0
 -438 -30 0
 -70 -30 0
 -34 -30 0
 -70 -26 0
 -438 -26 0
 -66 -26 0
 -30 -26 0
 -66 -22 0
 -438 -22 0
 -62 -22 0
 -26 -22 0
 -62 -18 0
 -438 -18 0
 -58 -18 0
 -22 -18 0
 -58 -14 0
 -438 -14 0
 -54 -14 0
 -18 -14 0
 -54 -10 0
 -438 -10 0
 -50 -10 0
 -14 -10 0
 -50 -6 0
 -438 -6 0
 -46 -6 0
 -10 -6 0
 -42 -2 0
 -406 -2 0
 -410 -2 0
 -414 -2 0
 -418 -2 0
 -422 -2 0
 -46 -2 0
 -438 -2 0
 -6 -2 0
 -402 -2 0
 -437 -433 0
 -433 -429 0
 -429 -425 0
 -425 -421 0
 -421 -417 0
 -417 -413 0
 -413 -409 0
 -409 -405 0
 -405 -401 0
 -437 -393 0
 -433 -393 0
 -433 -389 0
 -429 -389 0
 -393 -389 0
 -429 -385 0
 -425 -385 0
 -389 -385 0
 -425 -381 0
 -421 -381 0
 -385 -381 0
 -421 -377 0
 -417 -377 0
 -381 -377 0
 -417 -373 0
 -413 -373 0
 -377 -373 0
 -413 -369 0
 -409 -369 0
 -373 -369 0
 -409 -365 0
 -405 -365 0
 -369 -365 0
 -405 -361 0
 -401 -361 0
 -365 -361 0
 -397 -357 0
 -397 -353 0
 -357 -353 0
 -393 -349 0
 -389 -349 0
 -389 -345 0
 -385 -345 0
 -349 -345 0
 -385 -341 0
 -381 -341 0
 -345 -341 0
 -381 -337 0
 -377 -337 0
 -341 -337 0
 -377 -333 0
 -373 -333 0
 -337 -333 0
 -373 -329 0
 -369 -329 0
 -333 -329 0
 -369 -325 0
 -365 -325 0
 -329 -325 0
 -365 -321 0
 -361 -321 0
 -325 -321 0
 -357 -317 0
 -357 -313 0
 -353 -313 0
 -317 -313 0
 -353 -309 0
 -313 -309 0
 -349 -305 0
 -345 -305 0
 -345 -301 0
 -341 -301 0
 -305 -301 0
 -341 -297 0
 -337 -297 0
 -301 -297 0
 -337 -293 0
 -333 -293 0
 -297 -293 0
 -333 -289 0
 -329 -289 0
 -293 -289 0
 -329 -285 0
 -325 -285 0
 -289 -285 0
 -325 -281 0
 -321 -281 0
 -285 -281 0
 -317 -277 0
 -317 -273 0
 -313 -273 0
 -277 -273 0
 -313 -269 0
 -309 -269 0
 -273 -269 0
 -309 -265 0
 -269 -265 0
 -305 -261 0
 -301 -261 0
 -301 -257 0
 -297 -257 0
 -261 -257 0
 -297 -253 0
 -293 -253 0
 -257 -253 0
 -293 -249 0
 -289 -249 0
 -253 -249 0
 -289 -245 0
 -285 -245 0
 -249 -245 0
 -285 -241 0
 -281 -241 0
 -245 -241 0
 -277 -237 0
 -261 -237 0
 -277 -233 0
 -273 -233 0
 -237 -233 0
 -273 -229 0
 -269 -229 0
 -233 -229 0
 -269 -225 0
 -265 -225 0
 -229 -225 0
 -265 -221 0
 -225 -221 0
 -241 -221 0
 -261 -217 0
 -257 -217 0
 -237 -217 0
 -277 -217 0
 -257 -213 0
 -253 -213 0
 -217 -213 0
 -253 -209 0
 -249 -209 0
 -213 -209 0
 -249 -205 0
 -245 -205 0
 -209 -205 0
 -245 -201 0
 -241 -201 0
 -205 -201 0
 -221 -201 0
 -265 -201 0
 -237 -197 0
 -261 -197 0
 -305 -197 0
 -237 -193 0
 -233 -193 0
 -197 -193 0
 -233 -189 0
 -229 -189 0
 -193 -189 0
 -229 -185 0
 -225 -185 0
 -189 -185 0
 -225 -181 0
 -221 -181 0
 -185 -181 0
 -221 -177 0
 -181 -177 0
 -241 -177 0
 -281 -177 0
 -217 -173 0
 -213 -173 0
 -277 -173 0
 -317 -173 0
 -213 -169 0
 -209 -169 0
 -173 -169 0
 -209 -165 0
 -205 -165 0
 -169 -165 0
 -205 -161 0
 -201 -161 0
 -165 -161 0
 -265 -161 0
 -309 -161 0
 -197 -157 0
 -305 -157 0
 -349 -157 0
 -197 -153 0
 -193 -153 0
 -157 -153 0
 -193 -149 0
 -189 -149 0
 -153 -149 0
 -189 -145 0
 -185 -145 0
 -149 -145 0
 -185 -141 0
 -181 -141 0
 -145 -141 0
 -181 -137 0
 -177 -137 0
 -141 -137 0
 -177 -133 0
 -137 -133 0
 -281 -133 0
 -321 -133 0
 -173 -129 0
 -169 -129 0
 -317 -129 0
 -357 -129 0
 -169 -125 0
 -165 -125 0
 -129 -125 0
 -165 -121 0
 -161 -121 0
 -125 -121 0
 -309 -121 0
 -353 -121 0
 -157 -117 0
 -349 -117 0
 -393 -117 0
 -157 -113 0
 -153 -113 0
 -117 -113 0
 -153 -109 0
 -149 -109 0
 -113 -109 0
 -149 -105 0
 -145 -105 0
 -109 -105 0
 -145 -101 0
 -141 -101 0
 -105 -101 0
 -141 -97 0
 -137 -97 0
 -101 -97 0
 -137 -93 0
 -133 -93 0
 -97 -93 0
 -133 -89 0
 -93 -89 0
 -321 -89 0
 -361 -89 0
 -129 -85 0
 -125 -85 0
 -357 -85 0
 -397 -85 0
 -125 -81 0
 -121 -81 0
 -85 -81 0
 -353 -81 0
 -397 -81 0
 -117 -77 0
 -393 -77 0
 -437 -77 0
 -117 -73 0
 -113 -73 0
 -77 -73 0
 -113 -69 0
 -109 -69 0
 -73 -69 0
 -109 -65 0
 -105 -65 0
 -69 -65 0
 -105 -61 0
 -101 -61 0
 -65 -61 0
 -101 -57 0
 -97 -57 0
 -61 -57 0
 -97 -53 0
 -93 -53 0
 -57 -53 0
 -93 -49 0
 -89 -49 0
 -53 -49 0
 -89 -45 0
 -49 -45 0
 -361 -45 0
 -401 -45 0
 -421 -41 0
 -425 -41 0
 -429 -41 0
 -433 -41 0
 -437 -41 0
 -437 -37 0
 -77 -37 0
 -77 -33 0
 -437 -33 0
 -73 -33 0
 -37 -33 0
 -73 -29 0
 -437 -29 0
 -69 -29 0
 -33 -29 0
 -69 -25 0
 -437 -25 0
 -65 -25 0
 -29 -25 0
 -65 -21 0
 -437 -21 0
 -61 -21 0
 -25 -21 0
 -61 -17 0
 -437 -17 0
 -57 -17 0
 -21 -17 0
 -57 -13 0
 -437 -13 0
 -53 -13 0
 -17 -13 0
 -53 -9 0
 -437 -9 0
 -49 -9 0
 -13 -9 0
 -49 -5 0
 -437 -5 0
 -45 -5 0
 -9 -5 0
 -41 -1 0
 -405 -1 0
 -409 -1 0
 -413 -1 0
 -417 -1 0
 -421 -1 0
 -45 -1 0
 -437 -1 0
 -5 -1 0
 -401 -1 0
 440 439 438 437 0
 436 435 434 433 0
 432 431 430 429 0
 428 427 426 425 0
 424 423 422 421 0
 420 419 418 417 0
 416 415 414 413 0
 412 411 410 409 0
 408 407 406 405 0
 404 403 402 401 0
 400 399 398 397 0
 396 395 394 393 0
 392 391 390 389 0
 388 387 386 385 0
 384 383 382 381 0
 380 379 378 377 0
 376 375 374 373 0
 372 371 370 369 0
 368 367 366 365 0
 364 363 362 361 0
 360 359 358 357 0
 356 355 354 353 0
 352 351 350 349 0
 348 347 346 345 0
 344 343 342 341 0
 340 339 338 337 0
 336 335 334 333 0
 332 331 330 329 0
 328 327 326 325 0
 324 323 322 321 0
 320 319 318 317 0
 316 315 314 313 0
 312 311 310 309 0
 308 307 306 305 0
 304 303 302 301 0
 300 299 298 297 0
 296 295 294 293 0
 292 291 290 289 0
 288 287 286 285 0
 284 283 282 281 0
 280 279 278 277 0
 276 275 274 273 0
 272 271 270 269 0
 268 267 266 265 0
 264 263 262 261 0
 260 259 258 257 0
 256 255 254 253 0
 252 251 250 249 0
 248 247 246 245 0
 244 243 242 241 0
 240 239 238 237 0
 236 235 234 233 0
 232 231 230 229 0
 228 227 226 225 0
 224 223 222 221 0
 220 219 218 217 0
 216 215 214 213 0
 212 211 210 209 0
 208 207 206 205 0
 204 203 202 201 0
 200 199 198 197 0
 196 195 194 193 0
 192 191 190 189 0
 188 187 186 185 0
 184 183 182 181 0
 180 179 178 177 0
 176 175 174 173 0
 172 171 170 169 0
 168 167 166 165 0
 164 163 162 161 0
 160 159 158 157 0
 156 155 154 153 0
 152 151 150 149 0
 148 147 146 145 0
 144 143 142 141 0
 140 139 138 137 0
 136 135 134 133 0
 132 131 130 129 0
 128 127 126 125 0
 124 123 122 121 0
 120 119 118 117 0
 116 115 114 113 0
 112 111 110 109 0
 108 107 106 105 0
 104 103 102 101 0
 100 99 98 97 0
 96 95 94 93 0
 92 91 90 89 0
 88 87 86 85 0
 84 83 82 81 0
 80 79 78 77 0
 76 75 74 73 0
 72 71 70 69 0
 68 67 66 65 0
 64 63 62 61 0
 60 59 58 57 0
 56 55 54 53 0
 52 51 50 49 0
 48 47 46 45 0
 44 43 42 41 0
 40 39 38 37 0
 36 35 34 33 0
 32 31 30 29 0
 28 27 26 25 0
 24 23 22 21 0
 20 19 18 17 0
 16 15 14 13 0
 12 11 10 9 0
 8 7 6 5 0
 4 3 2 1 0
